211 5
10 10 10 10 10 

0 0 0 0 0 0 1 2 
0 0 0 0 0 0 2 3 6 
5 0 0 1 0 0 2 7 4 
3 0 0 6 0 0 1 5 
2 0 0 9 0 0 2 11 8 
7 0 0 5 0 0 2 11 8 
6 0 0 3 0 0 1 8 
10 0 0 5 0 0 1 9 
6 0 0 5 0 0 1 10 
2 0 0 3 0 0 1 12 
10 0 0 6 0 0 1 12 
3 0 0 7 0 0 1 13 
0 0 0 0 0 0 2 14 26 
0 0 0 0 0 0 1 15 
4 0 4 0 0 0 3 19 17 16 
5 0 3 0 0 0 2 21 18 
10 0 4 0 0 0 2 21 20 
1 0 4 0 0 0 1 20 
1 0 3 0 0 0 1 20 
6 0 7 0 0 0 2 22 147 
5 0 4 0 0 0 1 22 
6 0 6 0 0 0 1 23 
3 0 5 0 0 0 1 24 
1 0 10 0 0 0 1 25 
0 0 0 0 0 0 2 48 60 
0 0 0 0 0 0 1 27 
1 0 0 1 0 3 2 30 28 
5 0 0 5 0 5 2 32 29 
10 0 0 5 0 4 1 31 
2 0 0 3 0 2 1 31 
7 0 0 4 0 5 1 33 
7 0 0 4 0 5 1 33 
1 0 0 10 0 4 2 34 70 
2 0 0 5 0 5 3 39 37 35 
7 0 0 4 0 4 1 36 
9 0 0 7 0 5 1 38 
9 0 0 5 0 4 1 38 
3 0 0 4 0 10 2 43 40 
8 0 0 5 0 5 2 43 41 
9 0 0 7 0 6 1 41 
7 0 0 4 0 7 1 42 
4 0 0 4 0 7 1 44 
4 0 0 7 0 7 1 44 
9 0 0 6 0 4 1 45 
4 0 0 2 0 4 1 46 
8 0 0 8 0 4 1 47 
0 0 0 0 0 0 1 72 
0 0 0 0 0 0 2 49 50 
3 0 0 0 0 1 2 58 51 
4 0 0 0 0 7 2 58 51 
2 0 0 0 0 7 1 52 
2 0 0 0 0 6 1 53 
9 0 0 0 0 6 2 57 54 
8 0 0 0 0 3 1 55 
7 0 0 0 0 4 1 56 
7 0 0 0 0 4 1 59 
2 0 0 0 0 7 2 59 179 
10 0 0 0 0 5 1 59 
0 0 0 0 0 0 1 72 
0 0 0 0 0 0 3 61 62 145 
3 0 5 0 0 0 2 65 63 
6 0 4 0 0 0 2 65 64 
10 0 4 0 0 0 1 64 
5 0 2 0 0 0 2 69 66 
9 0 5 0 0 0 2 69 66 
5 0 3 0 0 0 1 67 
6 0 4 0 0 0 1 68 
3 0 10 0 0 0 1 70 
3 0 5 0 0 0 1 70 
4 0 8 0 0 0 1 71 
0 0 0 0 0 0 1 72 
0 0 0 0 0 0 4 73 95 117 139 
0 0 0 0 0 0 2 74 80 
8 0 0 1 1 0 1 75 
3 0 0 10 9 0 1 76 
2 0 0 4 5 0 1 77 
10 0 0 6 7 0 2 82 78 
7 0 0 6 5 0 1 79 
4 0 0 7 2 0 2 88 81 
10 0 0 6 2 0 2 88 81 
4 0 0 6 4 0 1 83 
5 0 0 2 3 0 2 83 179 
10 0 0 4 7 0 2 89 84 
3 0 0 5 7 0 1 85 
7 0 0 5 7 0 2 93 86 
7 0 0 5 5 0 1 87 
6 0 0 6 5 0 1 90 
10 0 0 3 3 0 1 90 
9 0 0 5 5 0 2 93 92 
8 0 0 6 4 0 1 91 
5 0 0 4 8 0 1 92 
7 0 0 5 5 0 1 94 
4 0 0 4 6 0 1 94 
0 0 0 0 0 0 1 211 
0 0 0 0 0 0 2 96 99 
5 1 0 0 1 0 1 97 
7 7 0 0 5 0 2 102 98 
8 3 0 0 4 0 2 104 100 
2 5 0 0 9 0 2 104 100 
8 6 0 0 5 0 1 101 
1 4 0 0 4 0 2 107 103 
8 2 0 0 5 0 1 104 
10 4 0 0 5 0 1 105 
10 3 0 0 7 0 1 105 
7 5 0 0 6 0 1 106 
6 6 0 0 5 0 1 108 
5 6 0 0 6 0 1 108 
10 5 0 0 3 0 1 109 
4 3 0 0 3 0 1 110 
4 7 0 0 7 0 1 111 
9 6 0 0 3 0 3 115 112 197 
2 5 0 0 7 0 1 113 
3 7 0 0 5 0 1 114 
7 7 0 0 3 0 1 116 
2 8 0 0 7 0 1 116 
0 0 0 0 0 0 1 211 
0 0 0 0 0 0 2 118 119 
8 0 1 1 0 0 2 124 121 
5 0 4 7 0 0 2 122 120 
1 0 9 6 0 0 2 124 123 
9 0 2 4 0 0 1 122 
2 0 4 2 0 0 1 123 
3 0 4 9 0 0 1 125 
8 0 3 6 0 0 1 125 
2 0 5 5 0 0 1 126 
7 0 7 7 0 0 2 130 127 
4 0 7 4 0 0 1 128 
2 0 6 6 0 0 1 129 
10 0 9 4 0 0 1 131 
3 0 4 5 0 0 1 131 
2 0 3 5 0 0 2 137 132 
6 0 4 2 0 0 2 133 140 
9 0 4 7 0 0 1 134 
9 0 4 4 0 0 1 135 
10 0 5 5 0 0 1 136 
9 0 7 5 0 0 1 138 
1 0 8 6 0 0 1 138 
0 0 0 0 0 0 1 211 
0 0 0 0 0 0 2 140 142 
2 0 0 0 0 1 1 141 
4 0 0 0 0 4 1 143 
8 0 0 0 0 2 1 143 
9 0 0 0 0 6 1 144 
2 0 0 0 0 8 1 145 
9 0 0 0 0 5 2 147 146 
6 0 0 0 0 5 3 149 148 156 
8 0 0 0 0 7 1 148 
5 0 0 0 0 9 1 150 
4 0 0 0 0 3 1 150 
0 0 0 0 0 0 5 151 163 175 187 199 
0 0 0 0 0 0 2 152 153 
4 0 0 0 0 1 2 161 154 
2 0 0 0 0 3 3 161 154 209 
2 0 0 0 0 5 1 155 
6 0 0 0 0 5 2 160 156 
9 0 0 0 0 7 1 157 
9 0 0 0 0 7 1 158 
3 0 0 0 0 5 1 159 
2 0 0 0 0 7 1 162 
2 0 0 0 0 6 1 162 
7 0 0 0 0 4 1 162 
0 0 0 0 0 0 1 211 
0 0 0 0 0 0 1 164 
5 0 2 0 0 0 2 167 165 
1 0 4 0 0 0 2 169 166 
4 0 10 0 0 0 2 170 168 
3 0 2 0 0 0 2 169 168 
6 0 5 0 0 0 1 171 
2 0 7 0 0 0 1 171 
6 0 5 0 0 0 1 171 
4 0 4 0 0 0 1 172 
3 0 5 0 0 0 1 173 
3 0 6 0 0 0 1 174 
0 0 0 0 0 0 1 211 
0 0 0 0 0 0 3 176 184 185 
3 0 0 1 0 0 1 177 
10 0 0 6 0 0 1 178 
2 0 0 4 0 0 2 182 179 
6 0 0 5 0 0 1 180 
2 0 0 4 0 0 1 181 
3 0 0 6 0 0 1 183 
2 0 0 4 0 0 1 183 
10 0 0 6 0 0 1 186 
5 0 0 6 0 0 1 186 
10 0 0 8 0 0 1 186 
0 0 0 0 0 0 1 211 
0 0 0 0 0 0 3 188 196 197 
1 0 0 0 0 1 1 189 
4 0 0 0 0 6 1 190 
1 0 0 0 0 5 2 195 191 
8 0 0 0 0 4 1 192 
4 0 0 0 0 8 1 193 
3 0 0 0 0 6 1 194 
1 0 0 0 0 9 1 198 
3 0 0 0 0 4 1 198 
6 0 0 0 0 2 1 198 
7 0 0 0 0 5 1 198 
0 0 0 0 0 0 1 211 
0 0 0 0 0 0 1 200 
9 0 0 0 0 1 1 201 
7 0 0 0 0 6 2 209 202 
8 0 0 0 0 6 2 205 203 
4 0 0 0 0 8 2 208 204 
9 0 0 0 0 6 1 206 
1 0 0 0 0 5 1 206 
5 0 0 0 0 7 1 207 
7 0 0 0 0 4 1 210 
6 0 0 0 0 4 1 210 
7 0 0 0 0 3 1 210 
0 0 0 0 0 0 1 211 
0 0 0 0 0 0 0 
